branch-and-cut/resultados/B/b13.sol
# Objective value = 165
e[1,82] 0
e[82,1] 0
e[2,37] 1
e[37,2] 1
e[2,61] 0
e[61,2] 0
e[3,45] 0
e[45,3] 0
e[3,64] 1
e[64,3] 1
e[4,3] 1
e[3,4] 1
e[4,83] 0
e[83,4] 0
e[4,90] 0
e[90,4] 0
e[5,6] 0
e[6,5] 0
e[6,7] 0
e[7,6] 0
e[6,35] 0
e[35,6] 0
e[7,26] 0
e[26,7] 0
e[7,80] 0
e[80,7] 0
e[8,68] 0
e[68,8] 0
e[9,33] 0
e[33,9] 0
e[9,60] 0
e[60,9] 0
e[9,89] 0
e[89,9] 0
e[10,8] 0
e[8,10] 0
e[10,40] 0
e[40,10] 0
e[10,62] 1
e[62,10] 1
e[10,96] 0
e[96,10] 0
e[12,34] 0
e[34,12] 0
e[12,52] 0
e[52,12] 0
e[12,85] 1
e[85,12] 1
e[14,32] 0
e[32,14] 0
e[14,92] 0
e[92,14] 0
e[15,13] 0
e[13,15] 0
e[17,13] 0
e[13,17] 0
e[18,4] 1
e[4,18] 1
e[18,22] 1
e[22,18] 1
e[18,43] 1
e[43,18] 1
e[18,69] 1
e[69,18] 1
e[18,73] 0
e[73,18] 0
e[18,78] 0
e[78,18] 0
e[18,84] 1
e[84,18] 1
e[18,98] 0
e[98,18] 0
e[19,94] 0
e[94,19] 0
e[22,41] 1
e[41,22] 1
e[26,86] 0
e[86,26] 0
e[27,75] 0
e[75,27] 0
e[29,24] 1
e[24,29] 1
e[31,2] 0
e[2,31] 0
e[31,23] 0
e[23,31] 0
e[31,65] 0
e[65,31] 0
e[32,89] 1
e[89,32] 1
e[34,47] 0
e[47,34] 0
e[34,56] 0
e[56,34] 0
e[36,49] 0
e[49,36] 0
e[37,84] 1
e[84,37] 1
e[39,76] 0
e[76,39] 0
e[43,16] 0
e[16,43] 0
e[43,20] 1
e[20,43] 1
e[43,97] 0
e[97,43] 0
e[45,19] 0
e[19,45] 0
e[45,25] 0
e[25,45] 0
e[45,77] 0
e[77,45] 0
e[47,52] 0
e[52,47] 0
e[48,74] 0
e[74,48] 0
e[49,84] 1
e[84,49] 1
e[52,38] 0
e[38,52] 0
e[53,28] 0
e[28,53] 0
e[53,70] 0
e[70,53] 0
e[54,35] 1
e[35,54] 1
e[54,99] 0
e[99,54] 0
e[57,5] 0
e[5,57] 0
e[57,10] 1
e[10,57] 1
e[58,11] 0
e[11,58] 0
e[58,29] 1
e[29,58] 1
e[58,39] 0
e[39,58] 0
e[59,44] 0
e[44,59] 0
e[59,54] 1
e[54,59] 1
e[59,85] 1
e[85,59] 1
e[59,97] 0
e[97,59] 0
e[60,67] 0
e[67,60] 0
e[63,13] 0
e[13,63] 0
e[63,48] 0
e[48,63] 0
e[63,50] 1
e[50,63] 1
e[63,58] 1
e[58,63] 1
e[64,42] 1
e[42,64] 1
e[64,66] 0
e[66,64] 0
e[65,66] 0
e[66,65] 0
e[66,21] 0
e[21,66] 0
e[66,55] 0
e[55,66] 0
e[67,14] 0
e[14,67] 0
e[67,71] 0
e[71,67] 0
e[67,81] 0
e[81,67] 0
e[67,95] 0
e[95,67] 0
e[69,9] 0
e[9,69] 0
e[69,12] 1
e[12,69] 1
e[69,57] 1
e[57,69] 1
e[69,79] 0
e[79,69] 0
e[71,70] 0
e[70,71] 0
e[71,92] 0
e[92,71] 0
e[72,79] 0
e[79,72] 0
e[73,11] 0
e[11,73] 0
e[73,17] 0
e[17,73] 0
e[77,78] 0
e[78,77] 0
e[78,59] 0
e[59,78] 0
e[78,86] 0
e[86,78] 0
e[78,91] 0
e[91,78] 0
e[82,62] 1
e[62,82] 1
e[83,1] 0
e[1,83] 0
e[83,31] 0
e[31,83] 0
e[83,46] 0
e[46,83] 0
e[83,51] 0
e[51,83] 0
e[83,71] 0
e[71,83] 0
e[83,72] 0
e[72,83] 0
e[83,88] 0
e[88,83] 0
e[84,5] 0
e[5,84] 0
e[84,53] 0
e[53,84] 0
e[84,63] 1
e[63,84] 1
e[86,36] 0
e[36,86] 0
e[86,56] 0
e[56,86] 0
e[86,93] 0
e[93,86] 0
e[89,4] 1
e[4,89] 1
e[90,15] 0
e[15,90] 0
e[90,30] 0
e[30,90] 0
e[90,56] 0
e[56,90] 0
e[90,62] 0
e[62,90] 0
e[91,27] 0
e[27,91] 0
e[91,37] 1
e[37,91] 1
e[94,49] 1
e[49,94] 1
e[95,71] 0
e[71,95] 0
e[97,0] 0
e[0,97] 0
e[98,87] 0
e[87,98] 0
