branch-and-cut/resultados/B/b13.log

Gurobi 10.0.3 (win64) logging started Sun Dec 17 20:00:19 2023

Set parameter LogFile to value "./resultados/log.log"
Set parameter TimeLimit to value 600
Gurobi Optimizer version 10.0.3 build v10.0.3rc0 (win64)

CPU model: AMD Ryzen 5 5600 6-Core Processor, instruction set [SSE2|AVX|AVX2]
Thread count: 6 physical cores, 12 logical processors, using up to 12 threads

Academic license 2433534 - for non-commercial use only - registered to gm___@gmail.com
Optimize a model with 367 rows, 250 columns and 4809 nonzeros
Model fingerprint: 0x49b76037
Variable types: 0 continuous, 250 integer (250 binary)
Coefficient statistics:
  Matrix range     [1e+00, 2e+01]
  Objective range  [5e-01, 5e+00]
  Bounds range     [1e+00, 1e+00]
  RHS range        [1e+00, 1e+00]
Found heuristic solution: objective 717.0000000
Presolve removed 357 rows and 130 columns
Presolve time: 0.00s
Presolved: 10 rows, 120 columns, 30 nonzeros
Variable types: 0 continuous, 120 integer (120 binary)
Root relaxation presolved: 21 rows, 119 columns, 70 nonzeros


Root relaxation: objective 8.700000e+01, 19 iterations, 0.00 seconds (0.00 work units)

    Nodes    |    Current Node    |     Objective Bounds      |     Work
 Expl Unexpl |  Obj  Depth IntInf | Incumbent    BestBd   Gap | It/Node Time

     0     0   87.00000    0    3  717.00000   87.00000  87.9%     -    0s
     0     0  108.00000    0    -  717.00000  108.00000  84.9%     -    0s
     0     0  115.00000    0    -  717.00000  115.00000  84.0%     -    0s
H    0     0                     238.0000000  119.75000  49.7%     -    0s
     0     0  119.75000    0   12  238.00000  119.75000  49.7%     -    0s
H    0     0                     203.0000000  125.50000  38.2%     -    0s
     0     0  125.50000    0   13  203.00000  125.50000  38.2%     -    0s
     0     0  133.12500    0   28  203.00000  133.12500  34.4%     -    0s
H    0     0                     198.0000000  140.75000  28.9%     -    0s
     0     0  140.75000    0   21  198.00000  140.75000  28.9%     -    0s
H    0     0                     191.0000000  141.56250  25.9%     -    0s
     0     0  141.56250    0   28  191.00000  141.56250  25.9%     -    0s
H    0     0                     190.0000000  143.28947  24.6%     -    0s
     0     0  143.28947    0   34  190.00000  143.28947  24.6%     -    0s
H    0     0                     186.0000000  145.78571  21.6%     -    0s
     0     0  145.78571    0   36  186.00000  145.78571  21.6%     -    0s
H    0     0                     182.0000000  148.60714  18.3%     -    0s
     0     0  148.60714    0   37  182.00000  148.60714  18.3%     -    0s
     0     0  149.63636    0   41  182.00000  149.63636  17.8%     -    0s
     0     0  150.40278    0   39  182.00000  150.40278  17.4%     -    0s
     0     0  150.57695    0   44  182.00000  150.57695  17.3%     -    0s
     0     0  151.16667    0   16  182.00000  151.16667  16.9%     -    0s
H    0     0                     174.0000000  151.92453  12.7%     -    0s
     0     0  151.92453    0   49  174.00000  151.92453  12.7%     -    0s
H    0     0                     168.0000000  152.20787  9.40%     -    0s
     0     0  152.20787    0   48  168.00000  152.20787  9.40%     -    0s
     0     0  152.47244    0   49  168.00000  152.47244  9.24%     -    1s
     0     0  152.73621    0   49  168.00000  152.73621  9.09%     -    1s
     0     2  153.09611    0   51  168.00000  153.09611  8.87%     -    1s
   129   142  160.66304    7   38  168.00000  158.83974  5.45%  38.8    5s
   275   273     cutoff    7       168.00000  160.76404  4.31%  40.4   10s
   413   387  162.10870    6   35  168.00000  162.03846  3.55%  39.6   15s
H  439   309                     165.0000000  162.13636  1.74%  39.1   16s

Cutting planes:
  User: 15
  Gomory: 10
  MIR: 1
  Flow cover: 13
  Lazy constraints: 2671

Explored 815 nodes (23972 simplex iterations) in 19.11 seconds (2.13 work units)
Thread count was 12 (of 12 available processors)

Solution count 10: 165 168 174 ... 238

Optimal solution found (tolerance 1.00e-04)
Best objective 1.650000000000e+02, best bound 1.650000000000e+02, gap 0.0000%

User-callback calls 2147, time in user-callback 17.58 sec
